Set parameter Username
Set parameter Threads to value 1
Academic license - for non-commercial use only - expires 2022-07-11
Set parameter TimeLimit to value 300
Gurobi Optimizer version 9.5.1 build v9.5.1rc2 (linux64)
Thread count: 2 physical cores, 4 logical processors, using up to 1 threads
Optimize a model with 1700 rows, 840 columns and 6478 nonzeros
Model fingerprint: 0x3e7ac501
Variable types: 20 continuous, 820 integer (800 binary)
Coefficient statistics:
  Matrix range     [1e-01, 2e+03]
  Objective range  [1e-03, 2e-01]
  Bounds range     [1e+00, 1e+00]
  RHS range        [1e+00, 2e+03]

---------------------------------------------------------------------------
Multi-objectives: starting optimization with 1 objectives ... 
---------------------------------------------------------------------------
---------------------------------------------------------------------------

Multi-objectives: optimize objective 1 (min avg power cons) ...
---------------------------------------------------------------------------

Optimize a model with 1700 rows, 840 columns and 6478 nonzeros
Model fingerprint: 0x856a848d
Variable types: 20 continuous, 820 integer (800 binary)
Coefficient statistics:
  Matrix range     [1e-01, 2e+03]
  Objective range  [1e-03, 2e-01]
  Bounds range     [1e+00, 1e+00]
  RHS range        [1e+00, 2e+03]
Presolve removed 1152 rows and 527 columns
Presolve time: 0.06s
Presolved: 548 rows, 313 columns, 3432 nonzeros
Variable types: 16 continuous, 297 integer (281 binary)

Root relaxation: objective 1.625674e+00, 164 iterations, 0.00 seconds (0.00 work units)

    Nodes    |    Current Node    |     Objective Bounds      |     Work
 Expl Unexpl |  Obj  Depth IntInf | Incumbent    BestBd   Gap | It/Node Time

     0     0    1.62567    0   65          -    1.62567      -     -    0s
     0     0    1.87287    0   61          -    1.87287      -     -    0s
H    0     0                       3.1562784    1.87287  40.7%     -    0s
H    0     0                       3.1549705    1.87287  40.6%     -    0s
     0     0    1.88960    0   63    3.15497    1.88960  40.1%     -    0s
     0     0    2.05446    0   68    3.15497    2.05446  34.9%     -    0s
H    0     0                       3.0484982    2.05446  32.6%     -    0s
     0     0    2.06188    0   58    3.04850    2.06188  32.4%     -    0s
     0     0    2.17078    0   77    3.04850    2.17078  28.8%     -    0s
     0     0    2.17275    0   77    3.04850    2.17275  28.7%     -    0s
     0     0    2.17276    0   77    3.04850    2.17276  28.7%     -    0s
     0     0    2.21522    0   79    3.04850    2.21522  27.3%     -    0s
     0     0    2.21738    0   82    3.04850    2.21738  27.3%     -    0s
     0     0    2.21842    0   88    3.04850    2.21842  27.2%     -    0s
     0     0    2.21851    0   89    3.04850    2.21851  27.2%     -    0s
     0     0    2.23495    0   85    3.04850    2.23495  26.7%     -    0s
H    0     0                       3.0393600    2.23495  26.5%     -    0s
     0     0    2.23649    0   85    3.03936    2.23649  26.4%     -    0s
     0     0    2.23658    0   90    3.03936    2.23658  26.4%     -    0s
     0     0    2.24665    0   87    3.03936    2.24665  26.1%     -    0s
     0     0    2.24781    0   89    3.03936    2.24781  26.0%     -    0s
     0     0    2.24837    0   90    3.03936    2.24837  26.0%     -    0s
     0     0    2.24837    0   95    3.03936    2.24837  26.0%     -    0s
     0     0    2.25859    0   88    3.03936    2.25859  25.7%     -    0s
     0     0    2.26137    0   79    3.03936    2.26137  25.6%     -    0s
     0     0    2.26144    0   81    3.03936    2.26144  25.6%     -    0s
     0     0    2.26698    0   88    3.03936    2.26698  25.4%     -    0s
H    0     0                       3.0042504    2.26698  24.5%     -    0s
     0     0    2.26764    0   76    3.00425    2.26764  24.5%     -    0s
     0     0    2.26902    0   78    3.00425    2.26902  24.5%     -    0s
     0     0    2.26904    0   76    3.00425    2.26904  24.5%     -    0s
     0     0    2.27333    0   78    3.00425    2.27333  24.3%     -    0s
     0     0    2.27383    0   94    3.00425    2.27383  24.3%     -    0s
     0     0    2.27472    0   83    3.00425    2.27472  24.3%     -    0s
     0     0    2.27488    0   83    3.00425    2.27488  24.3%     -    0s
     0     0    2.27729    0   75    3.00425    2.27729  24.2%     -    0s
H    0     0                       2.9572145    2.27729  23.0%     -    0s
     0     0    2.27750    0   79    2.95721    2.27750  23.0%     -    0s
     0     0    2.27814    0   85    2.95721    2.27814  23.0%     -    0s
     0     0    2.27814    0   69    2.95721    2.27814  23.0%     -    0s
H    0     0                       2.9375555    2.27814  22.4%     -    0s
     0     2    2.27817    0   68    2.93756    2.27817  22.4%     -    0s
H   52    29                       2.9242346    2.27889  22.1%  43.2    0s
H   80    44                       2.9180942    2.27889  21.9%  35.3    0s
H  132    67                       2.9101152    2.30407  20.8%  35.5    0s
H  263   125                       2.8866278    2.36527  18.1%  39.3    0s
H  766   353                       2.8769632    2.40102  16.5%  48.9    3s
H 1420   488                       2.8458639    2.43202  14.5%  40.1    4s
H 1524   536                       2.8372221    2.43542  14.2%  39.1    4s
  1695   629    2.46277   23   85    2.83722    2.44784  13.7%  38.4    5s
H 2367   901                       2.8329435    2.47803  12.5%  39.3    6s
H 2393   904                       2.8231921    2.47934  12.2%  39.4    6s
H 2517   926                       2.8126334    2.48155  11.8%  39.3    6s
H 2890  1076                       2.8117897    2.49931  11.1%  39.9    7s
  3957  1520    2.68280   32   44    2.81179    2.53018  10.0%  40.3   10s
  6603  2243    2.60585   31   89    2.81179    2.59268  7.79%  39.6   15s
H 8030  2583                       2.8026132    2.60846  6.93%  39.1   17s
  9383  2888    2.69016   22   41    2.80261    2.62492  6.34%  38.2   20s
 10202  3010    2.76174   46   21    2.80261    2.63385  6.02%  37.6   25s
 12875  3263    2.72101   36   70    2.80261    2.65822  5.15%  37.4   30s
 15667  3140    2.73246   25   39    2.80261    2.68556  4.18%  37.4   35s
 18923  2789     cutoff   55         2.80261    2.71411  3.16%  37.1   40s
 22338  2078    2.77747   40   21    2.80261    2.74252  2.14%  36.0   45s

Cutting planes:
  Learned: 1
  Gomory: 2
  Cover: 62
  Implied bound: 122
  Projected implied bound: 22
  Clique: 1
  MIR: 128
  Flow cover: 196
  GUB cover: 22
  Zero half: 1
  Mod-K: 1
  RLT: 6
  Relax-and-lift: 315
  BQP: 1

Explored 26939 nodes (903963 simplex iterations) in 49.80 seconds (44.19 work units)
Thread count was 1 (of 4 available processors)

Solution count 10: 2.80261 2.81179 2.81263 ... 2.91012

Optimal solution found (tolerance 1.00e-04)
Best objective 2.802613249249e+00, best bound 2.802466126462e+00, gap 0.0052%

---------------------------------------------------------------------------
Multi-objectives: solved in 49.81 seconds (44.19 work units), solution count 10

